n_res = 4;
rc = [ 14, 28, 20, 16 ];
n_tasks = 30;
d = [ 10, 3, 7, 5, 5, 10, 5, 9, 4, 7, 10, 7, 8, 10, 5, 7, 3, 9, 6, 5, 8, 9, 2, 6, 8, 2, 4, 4, 8, 7 ];
rr = [| 0, 0, 0, 0, 0, 2, 3, 0, 0, 9, 2, 0, 0, 0, 0, 0, 7, 0, 0, 0, 0, 0, 0, 0, 0, 1, 0, 0, 0, 1
      | 8, 0, 0, 0, 0, 0, 0, 0, 0, 0, 0, 10, 7, 5, 9, 0, 0, 3, 0, 0, 10, 3, 6, 0, 0, 0, 0, 2, 4, 0
      | 0, 0, 0, 0, 0, 0, 0, 6, 0, 0, 0, 0, 0, 0, 0, 6, 0, 0, 6, 0, 0, 0, 0, 6, 8, 0, 1, 0, 0, 0
      | 0, 3, 5, 7, 7, 0, 0, 0, 2, 0, 0, 0, 0, 0, 0, 0, 0, 0, 0, 3, 0, 0, 0, 0, 0, 0, 0, 0, 0, 0 |];
suc = [ { 2 }, 
        { 3 }, 
        { 4 }, 
        { 5 }, 
        { 6 }, 
        { 7 }, 
        { 8 }, 
        { 9 }, 
        { 10 }, 
        { 11 }, 
        { 12 }, 
        { 13 }, 
        { 14 }, 
        { 15 }, 
        { 16 }, 
        { 17 }, 
        { 18 }, 
        { 19 }, 
        { 20 }, 
        { 21 }, 
        { 22 }, 
        { 23 }, 
        { 24 }, 
        { 25 }, 
        { 26 }, 
        { 27 }, 
        { 28 }, 
        { 29 }, 
        { 30 }, 
        {  }]; 
